p tw 154 432
0 1
0 2
0 113
1 2
1 112
2 32
2 85
3 4
3 5
3 15
3 49
3 78
3 109
4 5
4 16
4 48
5 53
5 87
5 134
5 135
5 136
6 7
6 8
6 68
7 8
7 31
8 14
8 15
8 16
8 17
9 10
9 11
9 12
9 13
9 141
10 11
10 12
10 13
10 54
10 57
10 58
10 59
11 12
11 13
11 20
12 13
12 121
12 138
12 139
13 24
13 25
13 26
14 15
14 16
14 17
14 50
14 51
15 16
15 17
15 49
15 78
15 109
16 17
16 48
17 31
17 68
18 19
18 104
18 128
18 129
19 75
19 76
19 77
20 25
20 57
20 139
21 22
21 23
21 115
22 23
22 30
22 111
23 114
24 25
24 26
24 138
25 26
25 57
25 139
26 121
27 28
27 88
27 90
27 97
27 98
27 99
28 127
28 142
29 30
29 110
29 130
29 131
29 132
30 111
31 68
32 33
32 34
32 35
32 36
32 85
33 34
33 35
33 36
33 47
33 95
34 35
34 36
34 46
34 94
35 36
35 89
35 108
36 39
36 40
36 41
36 42
37 38
37 51
37 78
37 79
37 80
37 81
37 82
37 83
37 84
38 50
38 143
39 40
39 41
39 42
39 58
39 85
39 110
39 111
39 112
39 113
39 114
39 115
40 41
40 42
40 88
40 89
41 42
41 108
42 70
42 145
43 44
43 45
43 63
43 67
43 116
43 117
43 118
43 119
44 45
44 80
44 120
44 126
44 144
45 96
46 47
46 94
47 95
48 49
49 78
49 109
50 51
50 143
51 78
51 79
51 80
51 81
51 82
51 83
51 84
52 53
52 54
52 140
52 149
53 54
53 87
53 134
53 135
53 136
54 57
54 58
54 59
55 56
55 132
56 71
56 131
57 58
57 59
57 139
58 59
58 85
58 110
58 111
58 112
58 113
58 114
58 115
59 117
59 141
60 61
60 62
60 83
60 103
60 123
60 124
61 62
61 105
62 69
62 70
62 71
62 72
62 73
62 74
63 64
63 67
63 116
63 117
63 118
63 119
64 65
64 150
65 66
65 67
65 150
66 67
66 122
66 146
67 116
67 117
67 118
67 119
69 70
69 71
69 72
69 73
69 74
69 125
69 126
70 71
70 72
70 73
70 74
70 145
71 72
71 73
71 74
71 131
72 73
72 74
72 133
73 74
73 153
74 151
74 152
75 76
75 77
75 124
75 128
75 137
76 77
76 102
76 103
76 104
76 105
77 129
78 79
78 80
78 81
78 82
78 83
78 84
78 109
79 80
79 81
79 82
79 83
79 84
79 106
79 107
80 81
80 82
80 83
80 84
80 120
80 126
80 144
81 82
81 83
81 84
81 148
82 83
82 84
82 147
83 84
83 103
83 123
83 124
84 143
85 110
85 111
85 112
85 113
85 114
85 115
86 87
86 100
86 101
87 134
87 135
87 136
88 89
88 90
88 97
88 98
88 99
89 108
90 91
90 97
90 98
90 99
91 92
91 93
92 93
92 97
92 123
93 98
93 127
94 95
96 120
97 98
97 99
97 123
98 99
98 127
99 142
100 101
100 135
101 136
101 149
102 103
102 104
102 105
102 137
103 104
103 105
103 123
103 124
104 105
104 128
104 129
106 107
106 147
106 148
107 144
109 118
109 146
110 111
110 112
110 113
110 114
110 115
110 130
110 131
110 132
111 112
111 113
111 114
111 115
112 113
112 114
112 115
113 114
113 115
114 115
116 117
116 118
116 119
116 122
117 118
117 119
117 141
118 119
118 146
119 130
119 150
120 126
120 144
121 138
121 139
122 146
123 124
124 128
124 137
125 126
125 151
125 153
126 144
127 142
128 129
128 137
130 131
130 132
130 150
131 132
133 145
133 152
134 135
134 136
134 140
135 136
136 149
138 139
140 149
145 152
147 148
151 152
151 153
